p tw 26 39
1 12
1 23
1 24
2 14
2 17
2 26
3 5
3 18
3 23
4 9
4 14
4 17
5 9
5 12
6 18
6 21
6 23
7 15
7 18
7 19
8 20
8 21
8 25
9 13
10 13
10 16
10 20
11 15
11 19
11 22
12 14
13 22
15 17
16 22
16 26
19 24
20 25
21 25
24 26
